p cnf 21 41
1 2 3 4 5 6 7 8 9 10 0
-13 12 0
-14 13 0
-15 14 0
-16 15 0
-17 16 0
-18 17 0
-19 18 0
-20 19 0
-21 20 0
12 1 0
-1 -12 0
-12 13 2 0
12 -2 0
-2 -13 0
-13 14 3 0
13 -3 0
-3 -14 0
-14 15 4 0
14 -4 0
-4 -15 0
-15 16 5 0
15 -5 0
-5 -16 0
-16 17 6 0
16 -6 0
-6 -17 0
-17 18 7 0
17 -7 0
-7 -18 0
-18 19 8 0
18 -8 0
-8 -19 0
-19 20 9 0
19 -9 0
-9 -20 0
-20 21 10 0
20 -10 0
-10 -21 0
-21 11 0
-11 21 0
